problem_generation/data/GISP/train/er_n=68_m=1364_p=0.60_SET2_setparam=100.00_alpha=0.50_346.lp
maximize
OBJ:100x0 + 100x1 + 100x2 + 100x3 + 100x4 + 100x5 + 100x6 + 100x7 + 100x8 + 100x9 + 100x10 + 100x11 + 100x12 + 100x13 + 100x14 + 100x15 + 100x16 + 100x17 + 100x18 + 100x19 + 100x20 + 100x21 + 100x22 + 100x23 + 100x24 + 100x25 + 100x26 + 100x27 + 100x28 + 100x29 + 100x30 + 100x31 + 100x32 + 100x33 + 100x34 + 100x35 + 100x36 + 100x37 + 100x38 + 100x39 + 100x40 + 100x41 + 100x42 + 100x43 + 100x44 + 100x45 + 100x46 + 100x47 + 100x48 + 100x49 + 100x50 + 100x51 + 100x52 + 100x53 + 100x54 + 100x55 + 100x56 + 100x57 + 100x58 + 100x59 + 100x60 + 100x61 + 100x62 + 100x63 + 100x64 + 100x65 + 100x66 + 100x67 - y55_57 - y47_53 - y26_30 - y55_66 - y15_39 - y7_35 - y5_65 - y8_9 - y48_54 - y21_37 - y6_48 - y40_50 - y21_46 - y6_57 - y40_59 - y21_55 - y6_66 - y44_47 - y2_41 - y33_56 - y51_64 - y43_60 - y14_33 - y24_65 - y14_42 - y7_12 - y47_48 - y17_44 - y18_21 - y7_30 - y9_49 - y18_30 - y5_60 - y36_66 - y9_67 - y0_9 - y21_41 - y6_52 - y10_40 - y25_38 - y2_45 - y10_58 - y2_54 - y14_28 - y24_60 - y36_43 - y55_56 - y36_52 - y55_65 - y28_48 - y28_57 - y58_67 - y6_38 - y29_40 - y21_36 - y29_49 - y21_45 - y21_54 - y10_17 - y6_65 - y33_37 - y25_42 - y3_5 - y32_41 - y32_50 - y43_50 - y22_27 - y35_46 - y43_59 - y24_55 - y24_64 - y16_60 - y36_38 - y17_34 - y55_60 - y17_43 - y28_52 - y9_48 - y58_62 - y50_58 - y6_33 - y9_66 - y21_31 - y29_44 - y40_44 - y10_12 - y39_48 - y2_8 - y10_21 - y39_66 - y2_26 - y25_28 - y32_36 - y23_67 - y24_32 - y32_45 - y51_58 - y13_41 - y35_41 - y3_18 - y16_37 - y51_67 - y1_57 - y1_66 - y28_29 - y17_38 - y17_56 - y28_56 - y50_53 - y6_28 - y29_30 - y50_62 - y30_65 - y10_16 - y39_52 - y20_48 - y31_48 - y10_25 - y12_44 - y12_53 - y20_66 - y12_62 - y13_27 - y51_53 - y35_36 - y16_32 - y1_43 - y13_45 - y24_54 - y1_61 - y24_63 - y9_11 - y5_22 - y3_47 - y9_29 - y38_65 - y17_42 - y58_61 - y50_57 - y6_32 - y19_60 - y30_60 - y20_34 - y31_34 - y0_65 - y10_11 - y20_43 - y12_39 - y23_39 - y20_52 - y31_52 - y20_61 - y4_44 - y23_57 - y23_66 - y1_29 - y24_31 - y24_40 - y43_53 - y16_36 - y1_47 - y35_49 - y5_17 - y1_65 - y49_60 - y5_35 - y9_33 - y7_63 - y6_18 - y42_48 - y8_55 - y11_51 - y42_66 - y11_60 - y31_38 - y12_34 - y23_34 - y20_47 - y31_47 - y39_60 - y12_43 - y23_43 - y31_65 - y4_48 - y23_61 - y53_62 - y4_57 - y1_33 - y13_35 - y4_66 - y24_35 - y13_44 - y5_12 - y9_10 - y17_23 - y57_59 - y9_19 - y26_53 - y9_28 - y7_67 - y8_41 - y0_37 - y30_50 - y8_59 - y12_20 - y20_42 - y23_38 - y1_19 - y13_21 - y53_57 - y37_58 - y1_46 - y38_41 - y26_48 - y46_63 - y49_59 - y8_27 - y19_27 - y27_40 - y27_49 - y19_45 - y0_41 - y42_56 - y8_63 - y60_64 - y0_59 - y52_60 - y20_37 - y1_14 - y13_16 - y4_47 - y45_48 - y24_25 - y53_61 - y22_55 - y1_32 - y22_64 - y34_66 - y14_60 - y37_62 - y26_34 - y15_43 - y26_43 - y46_58 - y7_48 - y8_13 - y18_48 - y49_63 - y18_57 - y27_35 - y11_18 - y7_66 - y8_31 - y48_67 - y63_65 - y27_53 - y30_49 - y30_58 - y12_19 - y20_32 - y4_15 - y23_28 - y41_64 - y44_60 - y10_67 - y22_41 - y34_43 - y37_39 - y53_65 - y3_46 - y14_46 - y22_59 - y56_61 - y14_55 - y37_57 - y14_64 - y18_25 - y18_34 - y26_47 - y15_56 - y18_52 - y26_65 - y0_13 - y11_13 - y18_61 - y27_39 - y8_35 - y29_67 - y8_44 - y19_44 - y11_40 - y12_14 - y41_50 - y4_10 - y44_46 - y52_59 - y44_55 - y44_64 - y22_36 - y34_38 - y45_47 - y37_43 - y45_56 - y3_50 - y14_50 - y37_52 - y7_20 - y15_33 - y7_38 - y15_51 - y18_47 - y8_12 - y7_56 - y8_21 - y18_56 - y48_66 - y11_26 - y40_62 - y41_45 - y52_54 - y10_57 - y3_36 - y45_51 - y3_45 - y37_47 - y22_58 - y15_19 - y14_63 - y26_28 - y55_64 - y18_24 - y36_60 - y26_37 - y47_60 - y59_62 - y8_16 - y48_52 - y11_12 - y19_25 - y48_61 - y0_21 - y11_21 - y29_66 - y40_66 - y41_58 - y25_41 - y33_54 - y25_50 - y10_61 - y44_63 - y25_59 - y3_22 - y14_40 - y37_42 - y22_53 - y3_49 - y15_23 - y55_59 - y26_32 - y7_28 - y28_60 - y9_56 - y5_67 - y29_34 - y8_11 - y9_65 - y6_41 - y29_43 - y21_39 - y0_16 - y6_50 - y11_16 - y21_48 - y29_52 - y62_67 - y2_34 - y2_43 - y3_8 - y51_57 - y2_52 - y3_17 - y32_53 - y3_35 - y3_44 - y14_44 - y15_18 - y7_14 - y17_55 - y28_55 - y29_38 - y29_56 - y40_56 - y54_58 - y10_42 - y25_40 - y32_48 - y43_48 - y51_61 - y2_56 - y43_57 - y24_53 - y35_62 - y28_32 - y7_9 - y36_54 - y9_37 - y5_48 - y6_22 - y21_29 - y29_42 - y29_51 - y21_47 - y39_55 - y2_24 - y25_26 - y10_37 - y3_7 - y24_39 - y35_48 - y3_25 - y32_61 - y17_18 - y5_34 - y47_49 - y17_45 - y36_58 - y17_54 - y9_50 - y28_63 - y6_26 - y58_64 - y9_59 - y21_24 - y29_37 - y21_33 - y6_44 - y21_42 - y2_10 - y39_59 - y2_28 - y20_64 - y54_66 - y4_56 - y43_56 - y13_52 - y35_61 - y17_22 - y28_31 - y28_40 - y6_12 - y5_56 - y6_30 - y50_64 - y42_60 - y8_67 - y20_41 - y2_14 - y62_65 - y23_46 - y4_51 - y4_60 - y16_25 - y32_42 - y24_38 - y35_38 - y32_51 - y43_51 - y51_55 - y1_45 - y13_56 - y24_56 - y5_15 - y1_63 - y17_26 - y46_62 - y49_58 - y17_35 - y28_35 - y15_65 - y38_67 - y5_42 - y28_44 - y49_67 - y19_53 - y30_53 - y8_62 - y42_64 - y11_58 - y39_40 - y23_32 - y31_45 - y12_41 - y54_56 - y39_67 - y23_50 - y20_63 - y4_46 - y31_63 - y12_59 - y1_22 - y53_60 - y1_31 - y13_33 - y24_42 - y35_51 - y5_10 - y1_58 - y46_48 - y38_44 - y9_17 - y38_53 - y7_65 - y18_65 - y27_43 - y27_52 - y19_48 - y42_50 - y11_53 - y8_66 - y19_66 - y12_27 - y39_53 - y23_36 - y20_49 - y31_49 - y12_45 - y23_54 - y1_17 - y23_63 - y56_60 - y13_37 - y16_33 - y22_67 - y1_44 - y38_39 - y9_12 - y5_32 - y7_51 - y18_51 - y38_66 - y7_60 - y8_25 - y18_60 - y19_43 - y30_43 - y0_39 - y12_13 - y30_61 - y60_62 - y4_18 - y12_31 - y41_67 - y20_44 - y1_3 - y23_49 - y13_14 - y4_45 - y53_59 - y16_19 - y34_55 - y1_30 - y22_62 - y45_64 - y1_39 - y3_58 - y14_67 - y5_9 - y46_47 - y15_41 - y26_50 - y38_52 - y15_59 - y18_55 - y19_20 - y27_33 - y19_29 - y27_42 - y27_51 - y19_47 - y42_49 - y41_53 - y52_53 - y33_58 - y10_65 - y33_67 - y23_44 - y1_16 - y53_54 - y45_50 - y37_46 - y16_23 - y34_59 - y3_53 - y22_66 - y15_36 - y5_13 - y26_45 - y15_54 - y26_54 - y8_15 - y26_63 - y8_24 - y19_24 - y0_20 - y19_33 - y30_33 - y11_38 - y30_51 - y0_47 - y11_47 - y60_61 - y4_8 - y12_21 - y52_57 - y33_53 - y41_66 - y4_26 - y10_60 - y22_34 - y34_36 - y1_20 - y34_54 - y22_61 - y34_63 - y45_63 - y15_22 - y3_66 - y14_66 - y38_42 - y18_36 - y15_49 - y15_58 - y26_58 - y7_54 - y0_15 - y11_15 - y19_28 - y0_24 - y8_37 - y6_67 - y41_43 - y10_46 - y44_48 - y10_55 - y25_53 - y33_66 - y22_29 - y44_66 - y1_6 - y3_34 - y37_45 - y22_56 - y37_54 - y22_65 - y15_35 - y18_31 - y47_67 - y0_1 - y7_49 - y18_49 - y29_46 - y40_46 - y19_23 - y30_32 - y21_51 - y33_34 - y41_47 - y25_30 - y10_41 - y33_43 - y10_59 - y44_61 - y2_55 - y14_20 - y66_67 - y37_40 - y22_51 - y14_47 - y7_8 - y14_56
 Subject to
C1: x0+x1-y0_1 <=1 
C2: x0+x4 <=1 
C3: x0+x6 <=1 
C4: x0+x8 <=1 
C5: x0+x9-y0_9 <=1 
C6: x0+x10 <=1 
C7: x0+x12 <=1 
C8: x0+x13-y0_13 <=1 
C9: x0+x14 <=1 
C10: x0+x15-y0_15 <=1 
C11: x0+x16-y0_16 <=1 
C12: x0+x17 <=1 
C13: x0+x19 <=1 
C14: x0+x20-y0_20 <=1 
C15: x0+x21-y0_21 <=1 
C16: x0+x22 <=1 
C17: x0+x23 <=1 
C18: x0+x24-y0_24 <=1 
C19: x0+x26 <=1 
C20: x0+x27 <=1 
C21: x0+x30 <=1 
C22: x0+x32 <=1 
C23: x0+x33 <=1 
C24: x0+x34 <=1 
C25: x0+x37-y0_37 <=1 
C26: x0+x38 <=1 
C27: x0+x39-y0_39 <=1 
C28: x0+x40 <=1 
C29: x0+x41-y0_41 <=1 
C30: x0+x42 <=1 
C31: x0+x44 <=1 
C32: x0+x45 <=1 
C33: x0+x47-y0_47 <=1 
C34: x0+x48 <=1 
C35: x0+x49 <=1 
C36: x0+x50 <=1 
C37: x0+x52 <=1 
C38: x0+x53 <=1 
C39: x0+x56 <=1 
C40: x0+x57 <=1 
C41: x0+x59-y0_59 <=1 
C42: x0+x63 <=1 
C43: x0+x65-y0_65 <=1 
C44: x0+x66 <=1 
C45: x0+x67 <=1 
C46: x1+x2 <=1 
C47: x1+x3-y1_3 <=1 
C48: x1+x5 <=1 
C49: x1+x6-y1_6 <=1 
C50: x1+x7 <=1 
C51: x1+x13 <=1 
C52: x1+x14-y1_14 <=1 
C53: x1+x15 <=1 
C54: x1+x16-y1_16 <=1 
C55: x1+x17-y1_17 <=1 
C56: x1+x19-y1_19 <=1 
C57: x1+x20-y1_20 <=1 
C58: x1+x21 <=1 
C59: x1+x22-y1_22 <=1 
C60: x1+x28 <=1 
C61: x1+x29-y1_29 <=1 
C62: x1+x30-y1_30 <=1 
C63: x1+x31-y1_31 <=1 
C64: x1+x32-y1_32 <=1 
C65: x1+x33-y1_33 <=1 
C66: x1+x36 <=1 
C67: x1+x37 <=1 
C68: x1+x38 <=1 
C69: x1+x39-y1_39 <=1 
C70: x1+x41 <=1 
C71: x1+x42 <=1 
C72: x1+x43-y1_43 <=1 
C73: x1+x44-y1_44 <=1 
C74: x1+x45-y1_45 <=1 
C75: x1+x46-y1_46 <=1 
C76: x1+x47-y1_47 <=1 
C77: x1+x49 <=1 
C78: x1+x51 <=1 
C79: x1+x52 <=1 
C80: x1+x53 <=1 
C81: x1+x54 <=1 
C82: x1+x55 <=1 
C83: x1+x56 <=1 
C84: x1+x57-y1_57 <=1 
C85: x1+x58-y1_58 <=1 
C86: x1+x59 <=1 
C87: x1+x60 <=1 
C88: x1+x61-y1_61 <=1 
C89: x1+x63-y1_63 <=1 
C90: x1+x64 <=1 
C91: x1+x65-y1_65 <=1 
C92: x1+x66-y1_66 <=1 
C93: x1+x67 <=1 
C94: x2+x4 <=1 
C95: x2+x5 <=1 
C96: x2+x8-y2_8 <=1 
C97: x2+x10-y2_10 <=1 
C98: x2+x12 <=1 
C99: x2+x14-y2_14 <=1 
C100: x2+x19 <=1 
C101: x2+x20 <=1 
C102: x2+x22 <=1 
C103: x2+x24-y2_24 <=1 
C104: x2+x26-y2_26 <=1 
C105: x2+x28-y2_28 <=1 
C106: x2+x32 <=1 
C107: x2+x33 <=1 
C108: x2+x34-y2_34 <=1 
C109: x2+x36 <=1 
C110: x2+x38 <=1 
C111: x2+x39 <=1 
C112: x2+x40 <=1 
C113: x2+x41-y2_41 <=1 
C114: x2+x43-y2_43 <=1 
C115: x2+x45-y2_45 <=1 
C116: x2+x46 <=1 
C117: x2+x47 <=1 
C118: x2+x52-y2_52 <=1 
C119: x2+x54-y2_54 <=1 
C120: x2+x55-y2_55 <=1 
C121: x2+x56-y2_56 <=1 
C122: x2+x61 <=1 
C123: x2+x62 <=1 
C124: x2+x66 <=1 
C125: x2+x67 <=1 
C126: x3+x4 <=1 
C127: x3+x5-y3_5 <=1 
C128: x3+x7-y3_7 <=1 
C129: x3+x8-y3_8 <=1 
C130: x3+x9 <=1 
C131: x3+x10 <=1 
C132: x3+x14 <=1 
C133: x3+x15 <=1 
C134: x3+x17-y3_17 <=1 
C135: x3+x18-y3_18 <=1 
C136: x3+x19 <=1 
C137: x3+x20 <=1 
C138: x3+x22-y3_22 <=1 
C139: x3+x23 <=1 
C140: x3+x24 <=1 
C141: x3+x25-y3_25 <=1 
C142: x3+x26 <=1 
C143: x3+x28 <=1 
C144: x3+x30 <=1 
C145: x3+x34-y3_34 <=1 
C146: x3+x35-y3_35 <=1 
C147: x3+x36-y3_36 <=1 
C148: x3+x40 <=1 
C149: x3+x41 <=1 
C150: x3+x42 <=1 
C151: x3+x43 <=1 
C152: x3+x44-y3_44 <=1 
C153: x3+x45-y3_45 <=1 
C154: x3+x46-y3_46 <=1 
C155: x3+x47-y3_47 <=1 
C156: x3+x49-y3_49 <=1 
C157: x3+x50-y3_50 <=1 
C158: x3+x51 <=1 
C159: x3+x53-y3_53 <=1 
C160: x3+x55 <=1 
C161: x3+x56 <=1 
C162: x3+x57 <=1 
C163: x3+x58-y3_58 <=1 
C164: x3+x59 <=1 
C165: x3+x62 <=1 
C166: x3+x66-y3_66 <=1 
C167: x3+x67 <=1 
C168: x4+x8-y4_8 <=1 
C169: x4+x10-y4_10 <=1 
C170: x4+x11 <=1 
C171: x4+x12 <=1 
C172: x4+x15-y4_15 <=1 
C173: x4+x16 <=1 
C174: x4+x17 <=1 
C175: x4+x18-y4_18 <=1 
C176: x4+x19 <=1 
C177: x4+x22 <=1 
C178: x4+x25 <=1 
C179: x4+x26-y4_26 <=1 
C180: x4+x29 <=1 
C181: x4+x32 <=1 
C182: x4+x34 <=1 
C183: x4+x35 <=1 
C184: x4+x40 <=1 
C185: x4+x42 <=1 
C186: x4+x43 <=1 
C187: x4+x44-y4_44 <=1 
C188: x4+x45-y4_45 <=1 
C189: x4+x46-y4_46 <=1 
C190: x4+x47-y4_47 <=1 
C191: x4+x48-y4_48 <=1 
C192: x4+x51-y4_51 <=1 
C193: x4+x52 <=1 
C194: x4+x53 <=1 
C195: x4+x56-y4_56 <=1 
C196: x4+x57-y4_57 <=1 
C197: x4+x60-y4_60 <=1 
C198: x4+x61 <=1 
C199: x4+x62 <=1 
C200: x4+x63 <=1 
C201: x4+x66-y4_66 <=1 
C202: x5+x6 <=1 
C203: x5+x9-y5_9 <=1 
C204: x5+x10-y5_10 <=1 
C205: x5+x11 <=1 
C206: x5+x12-y5_12 <=1 
C207: x5+x13-y5_13 <=1 
C208: x5+x14 <=1 
C209: x5+x15-y5_15 <=1 
C210: x5+x17-y5_17 <=1 
C211: x5+x20 <=1 
C212: x5+x22-y5_22 <=1 
C213: x5+x23 <=1 
C214: x5+x27 <=1 
C215: x5+x28 <=1 
C216: x5+x32-y5_32 <=1 
C217: x5+x34-y5_34 <=1 
C218: x5+x35-y5_35 <=1 
C219: x5+x40 <=1 
C220: x5+x41 <=1 
C221: x5+x42-y5_42 <=1 
C222: x5+x45 <=1 
C223: x5+x46 <=1 
C224: x5+x47 <=1 
C225: x5+x48-y5_48 <=1 
C226: x5+x49 <=1 
C227: x5+x50 <=1 
C228: x5+x51 <=1 
C229: x5+x52 <=1 
C230: x5+x54 <=1 
C231: x5+x55 <=1 
C232: x5+x56-y5_56 <=1 
C233: x5+x57 <=1 
C234: x5+x60-y5_60 <=1 
C235: x5+x61 <=1 
C236: x5+x65-y5_65 <=1 
C237: x5+x67-y5_67 <=1 
C238: x6+x12-y6_12 <=1 
C239: x6+x14 <=1 
C240: x6+x16 <=1 
C241: x6+x18-y6_18 <=1 
C242: x6+x19 <=1 
C243: x6+x20 <=1 
C244: x6+x21 <=1 
C245: x6+x22-y6_22 <=1 
C246: x6+x24 <=1 
C247: x6+x25 <=1 
C248: x6+x26-y6_26 <=1 
C249: x6+x28-y6_28 <=1 
C250: x6+x29 <=1 
C251: x6+x30-y6_30 <=1 
C252: x6+x32-y6_32 <=1 
C253: x6+x33-y6_33 <=1 
C254: x6+x34 <=1 
C255: x6+x35 <=1 
C256: x6+x37 <=1 
C257: x6+x38-y6_38 <=1 
C258: x6+x40 <=1 
C259: x6+x41-y6_41 <=1 
C260: x6+x44-y6_44 <=1 
C261: x6+x45 <=1 
C262: x6+x47 <=1 
C263: x6+x48-y6_48 <=1 
C264: x6+x50-y6_50 <=1 
C265: x6+x51 <=1 
C266: x6+x52-y6_52 <=1 
C267: x6+x55 <=1 
C268: x6+x56 <=1 
C269: x6+x57-y6_57 <=1 
C270: x6+x58 <=1 
C271: x6+x60 <=1 
C272: x6+x65-y6_65 <=1 
C273: x6+x66-y6_66 <=1 
C274: x6+x67-y6_67 <=1 
C275: x7+x8-y7_8 <=1 
C276: x7+x9-y7_9 <=1 
C277: x7+x12-y7_12 <=1 
C278: x7+x13 <=1 
C279: x7+x14-y7_14 <=1 
C280: x7+x16 <=1 
C281: x7+x17 <=1 
C282: x7+x19 <=1 
C283: x7+x20-y7_20 <=1 
C284: x7+x21 <=1 
C285: x7+x25 <=1 
C286: x7+x28-y7_28 <=1 
C287: x7+x30-y7_30 <=1 
C288: x7+x31 <=1 
C289: x7+x32 <=1 
C290: x7+x35-y7_35 <=1 
C291: x7+x37 <=1 
C292: x7+x38-y7_38 <=1 
C293: x7+x40 <=1 
C294: x7+x43 <=1 
C295: x7+x48-y7_48 <=1 
C296: x7+x49-y7_49 <=1 
C297: x7+x50 <=1 
C298: x7+x51-y7_51 <=1 
C299: x7+x54-y7_54 <=1 
C300: x7+x56-y7_56 <=1 
C301: x7+x58 <=1 
C302: x7+x60-y7_60 <=1 
C303: x7+x61 <=1 
C304: x7+x63-y7_63 <=1 
C305: x7+x64 <=1 
C306: x7+x65-y7_65 <=1 
C307: x7+x66-y7_66 <=1 
C308: x7+x67-y7_67 <=1 
C309: x8+x9-y8_9 <=1 
C310: x8+x10 <=1 
C311: x8+x11-y8_11 <=1 
C312: x8+x12-y8_12 <=1 
C313: x8+x13-y8_13 <=1 
C314: x8+x14 <=1 
C315: x8+x15-y8_15 <=1 
C316: x8+x16-y8_16 <=1 
C317: x8+x19 <=1 
C318: x8+x21-y8_21 <=1 
C319: x8+x22 <=1 
C320: x8+x23 <=1 
C321: x8+x24-y8_24 <=1 
C322: x8+x25-y8_25 <=1 
C323: x8+x26 <=1 
C324: x8+x27-y8_27 <=1 
C325: x8+x30 <=1 
C326: x8+x31-y8_31 <=1 
C327: x8+x35-y8_35 <=1 
C328: x8+x36 <=1 
C329: x8+x37-y8_37 <=1 
C330: x8+x40 <=1 
C331: x8+x41-y8_41 <=1 
C332: x8+x42 <=1 
C333: x8+x44-y8_44 <=1 
C334: x8+x45 <=1 
C335: x8+x48 <=1 
C336: x8+x50 <=1 
C337: x8+x53 <=1 
C338: x8+x54 <=1 
C339: x8+x55-y8_55 <=1 
C340: x8+x57 <=1 
C341: x8+x59-y8_59 <=1 
C342: x8+x61 <=1 
C343: x8+x62-y8_62 <=1 
C344: x8+x63-y8_63 <=1 
C345: x8+x66-y8_66 <=1 
C346: x8+x67-y8_67 <=1 
C347: x9+x10-y9_10 <=1 
C348: x9+x11-y9_11 <=1 
C349: x9+x12-y9_12 <=1 
C350: x9+x14 <=1 
C351: x9+x15 <=1 
C352: x9+x16 <=1 
C353: x9+x17-y9_17 <=1 
C354: x9+x19-y9_19 <=1 
C355: x9+x20 <=1 
C356: x9+x23 <=1 
C357: x9+x24 <=1 
C358: x9+x28-y9_28 <=1 
C359: x9+x29-y9_29 <=1 
C360: x9+x32 <=1 
C361: x9+x33-y9_33 <=1 
C362: x9+x34 <=1 
C363: x9+x37-y9_37 <=1 
C364: x9+x38 <=1 
C365: x9+x40 <=1 
C366: x9+x42 <=1 
C367: x9+x45 <=1 
C368: x9+x48-y9_48 <=1 
C369: x9+x49-y9_49 <=1 
C370: x9+x50-y9_50 <=1 
C371: x9+x52 <=1 
C372: x9+x54 <=1 
C373: x9+x55 <=1 
C374: x9+x56-y9_56 <=1 
C375: x9+x59-y9_59 <=1 
C376: x9+x60 <=1 
C377: x9+x62 <=1 
C378: x9+x63 <=1 
C379: x9+x64 <=1 
C380: x9+x65-y9_65 <=1 
C381: x9+x66-y9_66 <=1 
C382: x9+x67-y9_67 <=1 
C383: x10+x11-y10_11 <=1 
C384: x10+x12-y10_12 <=1 
C385: x10+x13 <=1 
C386: x10+x14 <=1 
C387: x10+x16-y10_16 <=1 
C388: x10+x17-y10_17 <=1 
C389: x10+x18 <=1 
C390: x10+x19 <=1 
C391: x10+x20 <=1 
C392: x10+x21-y10_21 <=1 
C393: x10+x24 <=1 
C394: x10+x25-y10_25 <=1 
C395: x10+x27 <=1 
C396: x10+x28 <=1 
C397: x10+x29 <=1 
C398: x10+x30 <=1 
C399: x10+x33 <=1 
C400: x10+x37-y10_37 <=1 
C401: x10+x38 <=1 
C402: x10+x40-y10_40 <=1 
C403: x10+x41-y10_41 <=1 
C404: x10+x42-y10_42 <=1 
C405: x10+x43 <=1 
C406: x10+x45 <=1 
C407: x10+x46-y10_46 <=1 
C408: x10+x49 <=1 
C409: x10+x51 <=1 
C410: x10+x52 <=1 
C411: x10+x55-y10_55 <=1 
C412: x10+x57-y10_57 <=1 
C413: x10+x58-y10_58 <=1 
C414: x10+x59-y10_59 <=1 
C415: x10+x60-y10_60 <=1 
C416: x10+x61-y10_61 <=1 
C417: x10+x64 <=1 
C418: x10+x65-y10_65 <=1 
C419: x10+x66 <=1 
C420: x10+x67-y10_67 <=1 
C421: x11+x12-y11_12 <=1 
C422: x11+x13-y11_13 <=1 
C423: x11+x15-y11_15 <=1 
C424: x11+x16-y11_16 <=1 
C425: x11+x18-y11_18 <=1 
C426: x11+x20 <=1 
C427: x11+x21-y11_21 <=1 
C428: x11+x22 <=1 
C429: x11+x26-y11_26 <=1 
C430: x11+x30 <=1 
C431: x11+x32 <=1 
C432: x11+x35 <=1 
C433: x11+x36 <=1 
C434: x11+x38-y11_38 <=1 
C435: x11+x40-y11_40 <=1 
C436: x11+x41 <=1 
C437: x11+x42 <=1 
C438: x11+x43 <=1 
C439: x11+x45 <=1 
C440: x11+x47-y11_47 <=1 
C441: x11+x51-y11_51 <=1 
C442: x11+x53-y11_53 <=1 
C443: x11+x54 <=1 
C444: x11+x55 <=1 
C445: x11+x56 <=1 
C446: x11+x58-y11_58 <=1 
C447: x11+x60-y11_60 <=1 
C448: x11+x64 <=1 
C449: x11+x67 <=1 
C450: x12+x13-y12_13 <=1 
C451: x12+x14-y12_14 <=1 
C452: x12+x15 <=1 
C453: x12+x17 <=1 
C454: x12+x18 <=1 
C455: x12+x19-y12_19 <=1 
C456: x12+x20-y12_20 <=1 
C457: x12+x21-y12_21 <=1 
C458: x12+x26 <=1 
C459: x12+x27-y12_27 <=1 
C460: x12+x31-y12_31 <=1 
C461: x12+x34-y12_34 <=1 
C462: x12+x35 <=1 
C463: x12+x36 <=1 
C464: x12+x39-y12_39 <=1 
C465: x12+x40 <=1 
C466: x12+x41-y12_41 <=1 
C467: x12+x42 <=1 
C468: x12+x43-y12_43 <=1 
C469: x12+x44-y12_44 <=1 
C470: x12+x45-y12_45 <=1 
C471: x12+x49 <=1 
C472: x12+x52 <=1 
C473: x12+x53-y12_53 <=1 
C474: x12+x54 <=1 
C475: x12+x56 <=1 
C476: x12+x59-y12_59 <=1 
C477: x12+x61 <=1 
C478: x12+x62-y12_62 <=1 
C479: x12+x65 <=1 
C480: x12+x66 <=1 
C481: x13+x14-y13_14 <=1 
C482: x13+x16-y13_16 <=1 
C483: x13+x17 <=1 
C484: x13+x18 <=1 
C485: x13+x20 <=1 
C486: x13+x21-y13_21 <=1 
C487: x13+x22 <=1 
C488: x13+x27-y13_27 <=1 
C489: x13+x31 <=1 
C490: x13+x33-y13_33 <=1 
C491: x13+x35-y13_35 <=1 
C492: x13+x37-y13_37 <=1 
C493: x13+x38 <=1 
C494: x13+x41-y13_41 <=1 
C495: x13+x43 <=1 
C496: x13+x44-y13_44 <=1 
C497: x13+x45-y13_45 <=1 
C498: x13+x46 <=1 
C499: x13+x47 <=1 
C500: x13+x48 <=1 
C501: x13+x50 <=1 
C502: x13+x51 <=1 
C503: x13+x52-y13_52 <=1 
C504: x13+x56-y13_56 <=1 
C505: x13+x60 <=1 
C506: x13+x61 <=1 
C507: x13+x63 <=1 
C508: x13+x65 <=1 
C509: x14+x16 <=1 
C510: x14+x20-y14_20 <=1 
C511: x14+x24 <=1 
C512: x14+x25 <=1 
C513: x14+x28-y14_28 <=1 
C514: x14+x30 <=1 
C515: x14+x33-y14_33 <=1 
C516: x14+x34 <=1 
C517: x14+x35 <=1 
C518: x14+x38 <=1 
C519: x14+x40-y14_40 <=1 
C520: x14+x42-y14_42 <=1 
C521: x14+x43 <=1 
C522: x14+x44-y14_44 <=1 
C523: x14+x46-y14_46 <=1 
C524: x14+x47-y14_47 <=1 
C525: x14+x49 <=1 
C526: x14+x50-y14_50 <=1 
C527: x14+x51 <=1 
C528: x14+x52 <=1 
C529: x14+x54 <=1 
C530: x14+x55-y14_55 <=1 
C531: x14+x56-y14_56 <=1 
C532: x14+x57 <=1 
C533: x14+x60-y14_60 <=1 
C534: x14+x63-y14_63 <=1 
C535: x14+x64-y14_64 <=1 
C536: x14+x66-y14_66 <=1 
C537: x14+x67-y14_67 <=1 
C538: x15+x17 <=1 
C539: x15+x18-y15_18 <=1 
C540: x15+x19-y15_19 <=1 
C541: x15+x22-y15_22 <=1 
C542: x15+x23-y15_23 <=1 
C543: x15+x24 <=1 
C544: x15+x27 <=1 
C545: x15+x31 <=1 
C546: x15+x32 <=1 
C547: x15+x33-y15_33 <=1 
C548: x15+x34 <=1 
C549: x15+x35-y15_35 <=1 
C550: x15+x36-y15_36 <=1 
C551: x15+x38 <=1 
C552: x15+x39-y15_39 <=1 
C553: x15+x40 <=1 
C554: x15+x41-y15_41 <=1 
C555: x15+x43-y15_43 <=1 
C556: x15+x44 <=1 
C557: x15+x45 <=1 
C558: x15+x49-y15_49 <=1 
C559: x15+x50 <=1 
C560: x15+x51-y15_51 <=1 
C561: x15+x52 <=1 
C562: x15+x53 <=1 
C563: x15+x54-y15_54 <=1 
C564: x15+x56-y15_56 <=1 
C565: x15+x58-y15_58 <=1 
C566: x15+x59-y15_59 <=1 
C567: x15+x64 <=1 
C568: x15+x65-y15_65 <=1 
C569: x15+x66 <=1 
C570: x16+x17 <=1 
C571: x16+x19-y16_19 <=1 
C572: x16+x21 <=1 
C573: x16+x23-y16_23 <=1 
C574: x16+x25-y16_25 <=1 
C575: x16+x26 <=1 
C576: x16+x29 <=1 
C577: x16+x30 <=1 
C578: x16+x31 <=1 
C579: x16+x32-y16_32 <=1 
C580: x16+x33-y16_33 <=1 
C581: x16+x35 <=1 
C582: x16+x36-y16_36 <=1 
C583: x16+x37-y16_37 <=1 
C584: x16+x40 <=1 
C585: x16+x43 <=1 
C586: x16+x48 <=1 
C587: x16+x51 <=1 
C588: x16+x52 <=1 
C589: x16+x56 <=1 
C590: x16+x57 <=1 
C591: x16+x58 <=1 
C592: x16+x60-y16_60 <=1 
C593: x16+x61 <=1 
C594: x16+x62 <=1 
C595: x16+x63 <=1 
C596: x16+x65 <=1 
C597: x16+x67 <=1 
C598: x17+x18-y17_18 <=1 
C599: x17+x22-y17_22 <=1 
C600: x17+x23-y17_23 <=1 
C601: x17+x24 <=1 
C602: x17+x26-y17_26 <=1 
C603: x17+x27 <=1 
C604: x17+x28 <=1 
C605: x17+x30 <=1 
C606: x17+x31 <=1 
C607: x17+x32 <=1 
C608: x17+x33 <=1 
C609: x17+x34-y17_34 <=1 
C610: x17+x35-y17_35 <=1 
C611: x17+x38-y17_38 <=1 
C612: x17+x40 <=1 
C613: x17+x41 <=1 
C614: x17+x42-y17_42 <=1 
C615: x17+x43-y17_43 <=1 
C616: x17+x44-y17_44 <=1 
C617: x17+x45-y17_45 <=1 
C618: x17+x46 <=1 
C619: x17+x47 <=1 
C620: x17+x48 <=1 
C621: x17+x49 <=1 
C622: x17+x52 <=1 
C623: x17+x53 <=1 
C624: x17+x54-y17_54 <=1 
C625: x17+x55-y17_55 <=1 
C626: x17+x56-y17_56 <=1 
C627: x17+x57 <=1 
C628: x17+x58 <=1 
C629: x17+x59 <=1 
C630: x17+x60 <=1 
C631: x18+x20 <=1 
C632: x18+x21-y18_21 <=1 
C633: x18+x22 <=1 
C634: x18+x24-y18_24 <=1 
C635: x18+x25-y18_25 <=1 
C636: x18+x29 <=1 
C637: x18+x30-y18_30 <=1 
C638: x18+x31-y18_31 <=1 
C639: x18+x34-y18_34 <=1 
C640: x18+x36-y18_36 <=1 
C641: x18+x38 <=1 
C642: x18+x40 <=1 
C643: x18+x43 <=1 
C644: x18+x44 <=1 
C645: x18+x45 <=1 
C646: x18+x47-y18_47 <=1 
C647: x18+x48-y18_48 <=1 
C648: x18+x49-y18_49 <=1 
C649: x18+x51-y18_51 <=1 
C650: x18+x52-y18_52 <=1 
C651: x18+x53 <=1 
C652: x18+x55-y18_55 <=1 
C653: x18+x56-y18_56 <=1 
C654: x18+x57-y18_57 <=1 
C655: x18+x60-y18_60 <=1 
C656: x18+x61-y18_61 <=1 
C657: x18+x62 <=1 
C658: x18+x65-y18_65 <=1 
C659: x18+x66 <=1 
C660: x19+x20-y19_20 <=1 
C661: x19+x22 <=1 
C662: x19+x23-y19_23 <=1 
C663: x19+x24-y19_24 <=1 
C664: x19+x25-y19_25 <=1 
C665: x19+x26 <=1 
C666: x19+x27-y19_27 <=1 
C667: x19+x28-y19_28 <=1 
C668: x19+x29-y19_29 <=1 
C669: x19+x31 <=1 
C670: x19+x32 <=1 
C671: x19+x33-y19_33 <=1 
C672: x19+x36 <=1 
C673: x19+x41 <=1 
C674: x19+x43-y19_43 <=1 
C675: x19+x44-y19_44 <=1 
C676: x19+x45-y19_45 <=1 
C677: x19+x47-y19_47 <=1 
C678: x19+x48-y19_48 <=1 
C679: x19+x53-y19_53 <=1 
C680: x19+x55 <=1 
C681: x19+x58 <=1 
C682: x19+x59 <=1 
C683: x19+x60-y19_60 <=1 
C684: x19+x62 <=1 
C685: x19+x65 <=1 
C686: x19+x66-y19_66 <=1 
C687: x20+x22 <=1 
C688: x20+x24 <=1 
C689: x20+x28 <=1 
C690: x20+x29 <=1 
C691: x20+x32-y20_32 <=1 
C692: x20+x34-y20_34 <=1 
C693: x20+x35 <=1 
C694: x20+x36 <=1 
C695: x20+x37-y20_37 <=1 
C696: x20+x38 <=1 
C697: x20+x40 <=1 
C698: x20+x41-y20_41 <=1 
C699: x20+x42-y20_42 <=1 
C700: x20+x43-y20_43 <=1 
C701: x20+x44-y20_44 <=1 
C702: x20+x47-y20_47 <=1 
C703: x20+x48-y20_48 <=1 
C704: x20+x49-y20_49 <=1 
C705: x20+x50 <=1 
C706: x20+x51 <=1 
C707: x20+x52-y20_52 <=1 
C708: x20+x53 <=1 
C709: x20+x55 <=1 
C710: x20+x57 <=1 
C711: x20+x58 <=1 
C712: x20+x59 <=1 
C713: x20+x60 <=1 
C714: x20+x61-y20_61 <=1 
C715: x20+x62 <=1 
C716: x20+x63-y20_63 <=1 
C717: x20+x64-y20_64 <=1 
C718: x20+x65 <=1 
C719: x20+x66-y20_66 <=1 
C720: x21+x24-y21_24 <=1 
C721: x21+x27 <=1 
C722: x21+x29-y21_29 <=1 
C723: x21+x31-y21_31 <=1 
C724: x21+x33-y21_33 <=1 
C725: x21+x34 <=1 
C726: x21+x36-y21_36 <=1 
C727: x21+x37-y21_37 <=1 
C728: x21+x39-y21_39 <=1 
C729: x21+x40 <=1 
C730: x21+x41-y21_41 <=1 
C731: x21+x42-y21_42 <=1 
C732: x21+x43 <=1 
C733: x21+x44 <=1 
C734: x21+x45-y21_45 <=1 
C735: x21+x46-y21_46 <=1 
C736: x21+x47-y21_47 <=1 
C737: x21+x48-y21_48 <=1 
C738: x21+x49 <=1 
C739: x21+x51-y21_51 <=1 
C740: x21+x54-y21_54 <=1 
C741: x21+x55-y21_55 <=1 
C742: x21+x57 <=1 
C743: x21+x61 <=1 
C744: x21+x64 <=1 
C745: x21+x65 <=1 
C746: x22+x25 <=1 
C747: x22+x27-y22_27 <=1 
C748: x22+x29-y22_29 <=1 
C749: x22+x30 <=1 
C750: x22+x32 <=1 
C751: x22+x33 <=1 
C752: x22+x34-y22_34 <=1 
C753: x22+x35 <=1 
C754: x22+x36-y22_36 <=1 
C755: x22+x39 <=1 
C756: x22+x40 <=1 
C757: x22+x41-y22_41 <=1 
C758: x22+x45 <=1 
C759: x22+x48 <=1 
C760: x22+x50 <=1 
C761: x22+x51-y22_51 <=1 
C762: x22+x52 <=1 
C763: x22+x53-y22_53 <=1 
C764: x22+x55-y22_55 <=1 
C765: x22+x56-y22_56 <=1 
C766: x22+x57 <=1 
C767: x22+x58-y22_58 <=1 
C768: x22+x59-y22_59 <=1 
C769: x22+x60 <=1 
C770: x22+x61-y22_61 <=1 
C771: x22+x62-y22_62 <=1 
C772: x22+x63 <=1 
C773: x22+x64-y22_64 <=1 
C774: x22+x65-y22_65 <=1 
C775: x22+x66-y22_66 <=1 
C776: x22+x67-y22_67 <=1 
C777: x23+x27 <=1 
C778: x23+x28-y23_28 <=1 
C779: x23+x29 <=1 
C780: x23+x32-y23_32 <=1 
C781: x23+x34-y23_34 <=1 
C782: x23+x36-y23_36 <=1 
C783: x23+x37 <=1 
C784: x23+x38-y23_38 <=1 
C785: x23+x39-y23_39 <=1 
C786: x23+x40 <=1 
C787: x23+x42 <=1 
C788: x23+x43-y23_43 <=1 
C789: x23+x44-y23_44 <=1 
C790: x23+x46-y23_46 <=1 
C791: x23+x49-y23_49 <=1 
C792: x23+x50-y23_50 <=1 
C793: x23+x51 <=1 
C794: x23+x54-y23_54 <=1 
C795: x23+x56 <=1 
C796: x23+x57-y23_57 <=1 
C797: x23+x59 <=1 
C798: x23+x61-y23_61 <=1 
C799: x23+x63-y23_63 <=1 
C800: x23+x64 <=1 
C801: x23+x66-y23_66 <=1 
C802: x23+x67-y23_67 <=1 
C803: x24+x25-y24_25 <=1 
C804: x24+x27 <=1 
C805: x24+x29 <=1 
C806: x24+x30 <=1 
C807: x24+x31-y24_31 <=1 
C808: x24+x32-y24_32 <=1 
C809: x24+x34 <=1 
C810: x24+x35-y24_35 <=1 
C811: x24+x36 <=1 
C812: x24+x37 <=1 
C813: x24+x38-y24_38 <=1 
C814: x24+x39-y24_39 <=1 
C815: x24+x40-y24_40 <=1 
C816: x24+x41 <=1 
C817: x24+x42-y24_42 <=1 
C818: x24+x43 <=1 
C819: x24+x46 <=1 
C820: x24+x47 <=1 
C821: x24+x48 <=1 
C822: x24+x49 <=1 
C823: x24+x50 <=1 
C824: x24+x53-y24_53 <=1 
C825: x24+x54-y24_54 <=1 
C826: x24+x55-y24_55 <=1 
C827: x24+x56-y24_56 <=1 
C828: x24+x57 <=1 
C829: x24+x58 <=1 
C830: x24+x59 <=1 
C831: x24+x60-y24_60 <=1 
C832: x24+x63-y24_63 <=1 
C833: x24+x64-y24_64 <=1 
C834: x24+x65-y24_65 <=1 
C835: x24+x66 <=1 
C836: x25+x26-y25_26 <=1 
C837: x25+x27 <=1 
C838: x25+x28-y25_28 <=1 
C839: x25+x30-y25_30 <=1 
C840: x25+x34 <=1 
C841: x25+x36 <=1 
C842: x25+x37 <=1 
C843: x25+x38-y25_38 <=1 
C844: x25+x39 <=1 
C845: x25+x40-y25_40 <=1 
C846: x25+x41-y25_41 <=1 
C847: x25+x42-y25_42 <=1 
C848: x25+x44 <=1 
C849: x25+x48 <=1 
C850: x25+x49 <=1 
C851: x25+x50-y25_50 <=1 
C852: x25+x51 <=1 
C853: x25+x53-y25_53 <=1 
C854: x25+x56 <=1 
C855: x25+x59-y25_59 <=1 
C856: x25+x61 <=1 
C857: x25+x65 <=1 
C858: x25+x66 <=1 
C859: x26+x27 <=1 
C860: x26+x28-y26_28 <=1 
C861: x26+x29 <=1 
C862: x26+x30-y26_30 <=1 
C863: x26+x31 <=1 
C864: x26+x32-y26_32 <=1 
C865: x26+x33 <=1 
C866: x26+x34-y26_34 <=1 
C867: x26+x37-y26_37 <=1 
C868: x26+x39 <=1 
C869: x26+x41 <=1 
C870: x26+x43-y26_43 <=1 
C871: x26+x44 <=1 
C872: x26+x45-y26_45 <=1 
C873: x26+x47-y26_47 <=1 
C874: x26+x48-y26_48 <=1 
C875: x26+x50-y26_50 <=1 
C876: x26+x52 <=1 
C877: x26+x53-y26_53 <=1 
C878: x26+x54-y26_54 <=1 
C879: x26+x55 <=1 
C880: x26+x57 <=1 
C881: x26+x58-y26_58 <=1 
C882: x26+x60 <=1 
C883: x26+x61 <=1 
C884: x26+x62 <=1 
C885: x26+x63-y26_63 <=1 
C886: x26+x65-y26_65 <=1 
C887: x26+x67 <=1 
C888: x27+x28 <=1 
C889: x27+x30 <=1 
C890: x27+x33-y27_33 <=1 
C891: x27+x34 <=1 
C892: x27+x35-y27_35 <=1 
C893: x27+x36 <=1 
C894: x27+x37 <=1 
C895: x27+x39-y27_39 <=1 
C896: x27+x40-y27_40 <=1 
C897: x27+x41 <=1 
C898: x27+x42-y27_42 <=1 
C899: x27+x43-y27_43 <=1 
C900: x27+x44 <=1 
C901: x27+x49-y27_49 <=1 
C902: x27+x50 <=1 
C903: x27+x51-y27_51 <=1 
C904: x27+x52-y27_52 <=1 
C905: x27+x53-y27_53 <=1 
C906: x27+x57 <=1 
C907: x27+x59 <=1 
C908: x27+x60 <=1 
C909: x27+x61 <=1 
C910: x27+x65 <=1 
C911: x27+x66 <=1 
C912: x28+x29-y28_29 <=1 
C913: x28+x30 <=1 
C914: x28+x31-y28_31 <=1 
C915: x28+x32-y28_32 <=1 
C916: x28+x35-y28_35 <=1 
C917: x28+x40-y28_40 <=1 
C918: x28+x42 <=1 
C919: x28+x44-y28_44 <=1 
C920: x28+x48-y28_48 <=1 
C921: x28+x52-y28_52 <=1 
C922: x28+x53 <=1 
C923: x28+x54 <=1 
C924: x28+x55-y28_55 <=1 
C925: x28+x56-y28_56 <=1 
C926: x28+x57-y28_57 <=1 
C927: x28+x59 <=1 
C928: x28+x60-y28_60 <=1 
C929: x28+x63-y28_63 <=1 
C930: x28+x64 <=1 
C931: x28+x66 <=1 
C932: x29+x30-y29_30 <=1 
C933: x29+x31 <=1 
C934: x29+x34-y29_34 <=1 
C935: x29+x37-y29_37 <=1 
C936: x29+x38-y29_38 <=1 
C937: x29+x40-y29_40 <=1 
C938: x29+x42-y29_42 <=1 
C939: x29+x43-y29_43 <=1 
C940: x29+x44-y29_44 <=1 
C941: x29+x45 <=1 
C942: x29+x46-y29_46 <=1 
C943: x29+x47 <=1 
C944: x29+x49-y29_49 <=1 
C945: x29+x50 <=1 
C946: x29+x51-y29_51 <=1 
C947: x29+x52-y29_52 <=1 
C948: x29+x55 <=1 
C949: x29+x56-y29_56 <=1 
C950: x29+x61 <=1 
C951: x29+x63 <=1 
C952: x29+x64 <=1 
C953: x29+x66-y29_66 <=1 
C954: x29+x67-y29_67 <=1 
C955: x30+x32-y30_32 <=1 
C956: x30+x33-y30_33 <=1 
C957: x30+x34 <=1 
C958: x30+x35 <=1 
C959: x30+x37 <=1 
C960: x30+x40 <=1 
C961: x30+x43-y30_43 <=1 
C962: x30+x47 <=1 
C963: x30+x48 <=1 
C964: x30+x49-y30_49 <=1 
C965: x30+x50-y30_50 <=1 
C966: x30+x51-y30_51 <=1 
C967: x30+x53-y30_53 <=1 
C968: x30+x54 <=1 
C969: x30+x55 <=1 
C970: x30+x56 <=1 
C971: x30+x58-y30_58 <=1 
C972: x30+x60-y30_60 <=1 
C973: x30+x61-y30_61 <=1 
C974: x30+x65-y30_65 <=1 
C975: x31+x32 <=1 
C976: x31+x34-y31_34 <=1 
C977: x31+x38-y31_38 <=1 
C978: x31+x41 <=1 
C979: x31+x43 <=1 
C980: x31+x44 <=1 
C981: x31+x45-y31_45 <=1 
C982: x31+x46 <=1 
C983: x31+x47-y31_47 <=1 
C984: x31+x48-y31_48 <=1 
C985: x31+x49-y31_49 <=1 
C986: x31+x50 <=1 
C987: x31+x52-y31_52 <=1 
C988: x31+x55 <=1 
C989: x31+x57 <=1 
C990: x31+x58 <=1 
C991: x31+x59 <=1 
C992: x31+x60 <=1 
C993: x31+x61 <=1 
C994: x31+x63-y31_63 <=1 
C995: x31+x64 <=1 
C996: x31+x65-y31_65 <=1 
C997: x31+x66 <=1 
C998: x32+x33 <=1 
C999: x32+x35 <=1 
C1000: x32+x36-y32_36 <=1 
C1001: x32+x37 <=1 
C1002: x32+x41-y32_41 <=1 
C1003: x32+x42-y32_42 <=1 
C1004: x32+x43 <=1 
C1005: x32+x45-y32_45 <=1 
C1006: x32+x47 <=1 
C1007: x32+x48-y32_48 <=1 
C1008: x32+x49 <=1 
C1009: x32+x50-y32_50 <=1 
C1010: x32+x51-y32_51 <=1 
C1011: x32+x52 <=1 
C1012: x32+x53-y32_53 <=1 
C1013: x32+x54 <=1 
C1014: x32+x59 <=1 
C1015: x32+x61-y32_61 <=1 
C1016: x32+x62 <=1 
C1017: x32+x64 <=1 
C1018: x32+x65 <=1 
C1019: x32+x67 <=1 
C1020: x33+x34-y33_34 <=1 
C1021: x33+x35 <=1 
C1022: x33+x36 <=1 
C1023: x33+x37-y33_37 <=1 
C1024: x33+x38 <=1 
C1025: x33+x40 <=1 
C1026: x33+x41 <=1 
C1027: x33+x42 <=1 
C1028: x33+x43-y33_43 <=1 
C1029: x33+x45 <=1 
C1030: x33+x48 <=1 
C1031: x33+x49 <=1 
C1032: x33+x50 <=1 
C1033: x33+x52 <=1 
C1034: x33+x53-y33_53 <=1 
C1035: x33+x54-y33_54 <=1 
C1036: x33+x56-y33_56 <=1 
C1037: x33+x58-y33_58 <=1 
C1038: x33+x59 <=1 
C1039: x33+x64 <=1 
C1040: x33+x65 <=1 
C1041: x33+x66-y33_66 <=1 
C1042: x33+x67-y33_67 <=1 
C1043: x34+x35 <=1 
C1044: x34+x36-y34_36 <=1 
C1045: x34+x38-y34_38 <=1 
C1046: x34+x42 <=1 
C1047: x34+x43-y34_43 <=1 
C1048: x34+x46 <=1 
C1049: x34+x47 <=1 
C1050: x34+x52 <=1 
C1051: x34+x54-y34_54 <=1 
C1052: x34+x55-y34_55 <=1 
C1053: x34+x57 <=1 
C1054: x34+x58 <=1 
C1055: x34+x59-y34_59 <=1 
C1056: x34+x63-y34_63 <=1 
C1057: x34+x65 <=1 
C1058: x34+x66-y34_66 <=1 
C1059: x35+x36-y35_36 <=1 
C1060: x35+x38-y35_38 <=1 
C1061: x35+x39 <=1 
C1062: x35+x40 <=1 
C1063: x35+x41-y35_41 <=1 
C1064: x35+x43 <=1 
C1065: x35+x46-y35_46 <=1 
C1066: x35+x48-y35_48 <=1 
C1067: x35+x49-y35_49 <=1 
C1068: x35+x51-y35_51 <=1 
C1069: x35+x53 <=1 
C1070: x35+x54 <=1 
C1071: x35+x57 <=1 
C1072: x35+x58 <=1 
C1073: x35+x59 <=1 
C1074: x35+x60 <=1 
C1075: x35+x61-y35_61 <=1 
C1076: x35+x62-y35_62 <=1 
C1077: x35+x63 <=1 
C1078: x35+x64 <=1 
C1079: x35+x66 <=1 
C1080: x36+x38-y36_38 <=1 
C1081: x36+x43-y36_43 <=1 
C1082: x36+x44 <=1 
C1083: x36+x48 <=1 
C1084: x36+x52-y36_52 <=1 
C1085: x36+x53 <=1 
C1086: x36+x54-y36_54 <=1 
C1087: x36+x57 <=1 
C1088: x36+x58-y36_58 <=1 
C1089: x36+x60-y36_60 <=1 
C1090: x36+x66-y36_66 <=1 
C1091: x37+x38 <=1 
C1092: x37+x39-y37_39 <=1 
C1093: x37+x40-y37_40 <=1 
C1094: x37+x41 <=1 
C1095: x37+x42-y37_42 <=1 
C1096: x37+x43-y37_43 <=1 
C1097: x37+x44 <=1 
C1098: x37+x45-y37_45 <=1 
C1099: x37+x46-y37_46 <=1 
C1100: x37+x47-y37_47 <=1 
C1101: x37+x50 <=1 
C1102: x37+x51 <=1 
C1103: x37+x52-y37_52 <=1 
C1104: x37+x54-y37_54 <=1 
C1105: x37+x55 <=1 
C1106: x37+x57-y37_57 <=1 
C1107: x37+x58-y37_58 <=1 
C1108: x37+x62-y37_62 <=1 
C1109: x37+x64 <=1 
C1110: x37+x65 <=1 
C1111: x37+x66 <=1 
C1112: x37+x67 <=1 
C1113: x38+x39-y38_39 <=1 
C1114: x38+x41-y38_41 <=1 
C1115: x38+x42-y38_42 <=1 
C1116: x38+x44-y38_44 <=1 
C1117: x38+x46 <=1 
C1118: x38+x51 <=1 
C1119: x38+x52-y38_52 <=1 
C1120: x38+x53-y38_53 <=1 
C1121: x38+x55 <=1 
C1122: x38+x56 <=1 
C1123: x38+x57 <=1 
C1124: x38+x59 <=1 
C1125: x38+x60 <=1 
C1126: x38+x62 <=1 
C1127: x38+x63 <=1 
C1128: x38+x64 <=1 
C1129: x38+x65-y38_65 <=1 
C1130: x38+x66-y38_66 <=1 
C1131: x38+x67-y38_67 <=1 
C1132: x39+x40-y39_40 <=1 
C1133: x39+x43 <=1 
C1134: x39+x44 <=1 
C1135: x39+x46 <=1 
C1136: x39+x47 <=1 
C1137: x39+x48-y39_48 <=1 
C1138: x39+x50 <=1 
C1139: x39+x52-y39_52 <=1 
C1140: x39+x53-y39_53 <=1 
C1141: x39+x54 <=1 
C1142: x39+x55-y39_55 <=1 
C1143: x39+x58 <=1 
C1144: x39+x59-y39_59 <=1 
C1145: x39+x60-y39_60 <=1 
C1146: x39+x66-y39_66 <=1 
C1147: x39+x67-y39_67 <=1 
C1148: x40+x44-y40_44 <=1 
C1149: x40+x46-y40_46 <=1 
C1150: x40+x48 <=1 
C1151: x40+x49 <=1 
C1152: x40+x50-y40_50 <=1 
C1153: x40+x51 <=1 
C1154: x40+x52 <=1 
C1155: x40+x53 <=1 
C1156: x40+x55 <=1 
C1157: x40+x56-y40_56 <=1 
C1158: x40+x59-y40_59 <=1 
C1159: x40+x60 <=1 
C1160: x40+x61 <=1 
C1161: x40+x62-y40_62 <=1 
C1162: x40+x66-y40_66 <=1 
C1163: x41+x43-y41_43 <=1 
C1164: x41+x45-y41_45 <=1 
C1165: x41+x47-y41_47 <=1 
C1166: x41+x48 <=1 
C1167: x41+x50-y41_50 <=1 
C1168: x41+x51 <=1 
C1169: x41+x52 <=1 
C1170: x41+x53-y41_53 <=1 
C1171: x41+x55 <=1 
C1172: x41+x58-y41_58 <=1 
C1173: x41+x61 <=1 
C1174: x41+x62 <=1 
C1175: x41+x64-y41_64 <=1 
C1176: x41+x66-y41_66 <=1 
C1177: x41+x67-y41_67 <=1 
C1178: x42+x46 <=1 
C1179: x42+x48-y42_48 <=1 
C1180: x42+x49-y42_49 <=1 
C1181: x42+x50-y42_50 <=1 
C1182: x42+x51 <=1 
C1183: x42+x56-y42_56 <=1 
C1184: x42+x57 <=1 
C1185: x42+x60-y42_60 <=1 
C1186: x42+x62 <=1 
C1187: x42+x64-y42_64 <=1 
C1188: x42+x66-y42_66 <=1 
C1189: x43+x48-y43_48 <=1 
C1190: x43+x49 <=1 
C1191: x43+x50-y43_50 <=1 
C1192: x43+x51-y43_51 <=1 
C1193: x43+x52 <=1 
C1194: x43+x53-y43_53 <=1 
C1195: x43+x54 <=1 
C1196: x43+x56-y43_56 <=1 
C1197: x43+x57-y43_57 <=1 
C1198: x43+x59-y43_59 <=1 
C1199: x43+x60-y43_60 <=1 
C1200: x43+x61 <=1 
C1201: x43+x64 <=1 
C1202: x43+x65 <=1 
C1203: x43+x67 <=1 
C1204: x44+x46-y44_46 <=1 
C1205: x44+x47-y44_47 <=1 
C1206: x44+x48-y44_48 <=1 
C1207: x44+x49 <=1 
C1208: x44+x51 <=1 
C1209: x44+x52 <=1 
C1210: x44+x54 <=1 
C1211: x44+x55-y44_55 <=1 
C1212: x44+x56 <=1 
C1213: x44+x59 <=1 
C1214: x44+x60-y44_60 <=1 
C1215: x44+x61-y44_61 <=1 
C1216: x44+x62 <=1 
C1217: x44+x63-y44_63 <=1 
C1218: x44+x64-y44_64 <=1 
C1219: x44+x66-y44_66 <=1 
C1220: x45+x47-y45_47 <=1 
C1221: x45+x48-y45_48 <=1 
C1222: x45+x49 <=1 
C1223: x45+x50-y45_50 <=1 
C1224: x45+x51-y45_51 <=1 
C1225: x45+x52 <=1 
C1226: x45+x55 <=1 
C1227: x45+x56-y45_56 <=1 
C1228: x45+x59 <=1 
C1229: x45+x62 <=1 
C1230: x45+x63-y45_63 <=1 
C1231: x45+x64-y45_64 <=1 
C1232: x45+x66 <=1 
C1233: x46+x47-y46_47 <=1 
C1234: x46+x48-y46_48 <=1 
C1235: x46+x52 <=1 
C1236: x46+x55 <=1 
C1237: x46+x57 <=1 
C1238: x46+x58-y46_58 <=1 
C1239: x46+x60 <=1 
C1240: x46+x61 <=1 
C1241: x46+x62-y46_62 <=1 
C1242: x46+x63-y46_63 <=1 
C1243: x46+x66 <=1 
C1244: x47+x48-y47_48 <=1 
C1245: x47+x49-y47_49 <=1 
C1246: x47+x50 <=1 
C1247: x47+x53-y47_53 <=1 
C1248: x47+x54 <=1 
C1249: x47+x55 <=1 
C1250: x47+x59 <=1 
C1251: x47+x60-y47_60 <=1 
C1252: x47+x62 <=1 
C1253: x47+x63 <=1 
C1254: x47+x65 <=1 
C1255: x47+x67-y47_67 <=1 
C1256: x48+x49 <=1 
C1257: x48+x51 <=1 
C1258: x48+x52-y48_52 <=1 
C1259: x48+x54-y48_54 <=1 
C1260: x48+x55 <=1 
C1261: x48+x56 <=1 
C1262: x48+x58 <=1 
C1263: x48+x59 <=1 
C1264: x48+x61-y48_61 <=1 
C1265: x48+x62 <=1 
C1266: x48+x64 <=1 
C1267: x48+x66-y48_66 <=1 
C1268: x48+x67-y48_67 <=1 
C1269: x49+x50 <=1 
C1270: x49+x55 <=1 
C1271: x49+x57 <=1 
C1272: x49+x58-y49_58 <=1 
C1273: x49+x59-y49_59 <=1 
C1274: x49+x60-y49_60 <=1 
C1275: x49+x63-y49_63 <=1 
C1276: x49+x67-y49_67 <=1 
C1277: x50+x51 <=1 
C1278: x50+x53-y50_53 <=1 
C1279: x50+x54 <=1 
C1280: x50+x55 <=1 
C1281: x50+x57-y50_57 <=1 
C1282: x50+x58-y50_58 <=1 
C1283: x50+x59 <=1 
C1284: x50+x60 <=1 
C1285: x50+x61 <=1 
C1286: x50+x62-y50_62 <=1 
C1287: x50+x64-y50_64 <=1 
C1288: x50+x66 <=1 
C1289: x51+x53-y51_53 <=1 
C1290: x51+x55-y51_55 <=1 
C1291: x51+x57-y51_57 <=1 
C1292: x51+x58-y51_58 <=1 
C1293: x51+x59 <=1 
C1294: x51+x60 <=1 
C1295: x51+x61-y51_61 <=1 
C1296: x51+x64-y51_64 <=1 
C1297: x51+x65 <=1 
C1298: x51+x67-y51_67 <=1 
C1299: x52+x53-y52_53 <=1 
C1300: x52+x54-y52_54 <=1 
C1301: x52+x57-y52_57 <=1 
C1302: x52+x58 <=1 
C1303: x52+x59-y52_59 <=1 
C1304: x52+x60-y52_60 <=1 
C1305: x52+x62 <=1 
C1306: x53+x54-y53_54 <=1 
C1307: x53+x55 <=1 
C1308: x53+x57-y53_57 <=1 
C1309: x53+x59-y53_59 <=1 
C1310: x53+x60-y53_60 <=1 
C1311: x53+x61-y53_61 <=1 
C1312: x53+x62-y53_62 <=1 
C1313: x53+x65-y53_65 <=1 
C1314: x53+x66 <=1 
C1315: x53+x67 <=1 
C1316: x54+x56-y54_56 <=1 
C1317: x54+x58-y54_58 <=1 
C1318: x54+x60 <=1 
C1319: x54+x61 <=1 
C1320: x54+x62 <=1 
C1321: x54+x64 <=1 
C1322: x54+x66-y54_66 <=1 
C1323: x54+x67 <=1 
C1324: x55+x56-y55_56 <=1 
C1325: x55+x57-y55_57 <=1 
C1326: x55+x59-y55_59 <=1 
C1327: x55+x60-y55_60 <=1 
C1328: x55+x61 <=1 
C1329: x55+x64-y55_64 <=1 
C1330: x55+x65-y55_65 <=1 
C1331: x55+x66-y55_66 <=1 
C1332: x56+x57 <=1 
C1333: x56+x58 <=1 
C1334: x56+x60-y56_60 <=1 
C1335: x56+x61-y56_61 <=1 
C1336: x56+x63 <=1 
C1337: x56+x64 <=1 
C1338: x57+x58 <=1 
C1339: x57+x59-y57_59 <=1 
C1340: x57+x60 <=1 
C1341: x57+x62 <=1 
C1342: x57+x64 <=1 
C1343: x58+x59 <=1 
C1344: x58+x60 <=1 
C1345: x58+x61-y58_61 <=1 
C1346: x58+x62-y58_62 <=1 
C1347: x58+x63 <=1 
C1348: x58+x64-y58_64 <=1 
C1349: x58+x67-y58_67 <=1 
C1350: x59+x62-y59_62 <=1 
C1351: x59+x64 <=1 
C1352: x60+x61-y60_61 <=1 
C1353: x60+x62-y60_62 <=1 
C1354: x60+x64-y60_64 <=1 
C1355: x62+x63 <=1 
C1356: x62+x64 <=1 
C1357: x62+x65-y62_65 <=1 
C1358: x62+x67-y62_67 <=1 
C1359: x63+x65-y63_65 <=1 
C1360: x64+x66 <=1 
C1361: x64+x67 <=1 
C1362: x65+x66 <=1 
C1363: x65+x67 <=1 
C1364: x66+x67-y66_67 <=1 

binary
x0
x1
x2
x3
x4
x5
x6
x7
x8
x9
x10
x11
x12
x13
x14
x15
x16
x17
x18
x19
x20
x21
x22
x23
x24
x25
x26
x27
x28
x29
x30
x31
x32
x33
x34
x35
x36
x37
x38
x39
x40
x41
x42
x43
x44
x45
x46
x47
x48
x49
x50
x51
x52
x53
x54
x55
x56
x57
x58
x59
x60
x61
x62
x63
x64
x65
x66
x67
