problem_generation/data/GISP/train/er_n=68_m=1364_p=0.60_SET2_setparam=100.00_alpha=0.50_346.sol
objective value:                                 1275
x6                                                  1 	(obj:100)
x7                                                  1 	(obj:100)
x15                                                 1 	(obj:100)
x18                                                 1 	(obj:100)
x30                                                 1 	(obj:100)
x36                                                 1 	(obj:100)
x39                                                 1 	(obj:100)
x41                                                 1 	(obj:100)
x42                                                 1 	(obj:100)
x49                                                 1 	(obj:100)
x59                                                 1 	(obj:100)
x63                                                 1 	(obj:100)
x67                                                 1 	(obj:100)
y15_39                                              1 	(obj:-1)
y7_30                                               1 	(obj:-1)
y18_30                                              1 	(obj:-1)
y7_63                                               1 	(obj:-1)
y6_18                                               1 	(obj:-1)
y7_67                                               1 	(obj:-1)
y49_59                                              1 	(obj:-1)
y49_63                                              1 	(obj:-1)
y30_49                                              1 	(obj:-1)
y6_41                                               1 	(obj:-1)
y15_18                                              1 	(obj:-1)
y39_59                                              1 	(obj:-1)
y6_30                                               1 	(obj:-1)
y49_67                                              1 	(obj:-1)
y39_67                                              1 	(obj:-1)
y41_67                                              1 	(obj:-1)
y15_41                                              1 	(obj:-1)
y15_59                                              1 	(obj:-1)
y42_49                                              1 	(obj:-1)
y15_36                                              1 	(obj:-1)
y18_36                                              1 	(obj:-1)
y15_49                                              1 	(obj:-1)
y6_67                                               1 	(obj:-1)
y7_49                                               1 	(obj:-1)
y18_49                                              1 	(obj:-1)
